example/milp_example.lp
Maximize

 0.3 u11 + 0.7 u12

Subject To

 c0:  0.2 a - u1 = - 0.4
 c1:  a + u2 = 1
 c2:  a - u3 = 0
 c3:  u4 - u1 = 0
 c4:  0.1 u2 + 0.9 u3 - u5 = 0
 c5:  u6 - u4 = 0
 c6:  0.625 u4 + 0.375 u5 - u7 = 0
 c7:  u6 - y1 - u8 = 0
 c8:  u9 - y1 = 0
 c9:  0.8 u7 - 0.6 y2  - u10 = 0
 c10: 0.2 u8 + 0.8 u10 - u11 = 0
 c11: 0.2 u9 + 0.8 u10 - u12 = 0

 y1 - b <= 0
 y1 - u6 <= 0
 u6 + b - y1 <= 1

 y2 - b <= 0
 y2 - u7 <= 0
 u7 + b - y2 <= 1

Bounds

  0 <= y1 <= 1
  0 <= y2 <= 1

  0 <= u1 <= 1
  0 <= u2 <= 1
  0 <= u3 <= 1
  0 <= u4 <= 1
  0 <= u5 <= 1
  0 <= u6 <= 1
  0 <= u7 <= 1
  0 <= u8 <= 1
  0 <= u9 <= 1
  0 <= u10 <= 1
  0 <= u11 <= 1
  0 <= u12 <= 1

Binary

  a b 

End